SECTION Graph
Nodes 170
Edges 169

E 1 23 301
E 1 153 302
E 2 5 302
E 2 110 301
E 3 16 295
E 3 41 299
E 4 32 292
E 5 123 301
E 6 141 298
E 7 29 305
E 7 76 307
E 8 14 299
E 9 118 299
E 10 14 296
E 10 139 297
E 11 59 297
E 11 136 300
E 11 140 297
E 11 151 293
E 12 73 298
E 12 107 294
E 12 131 295
E 13 53 298
E 13 58 297
E 15 25 292
E 15 56 305
E 15 70 298
E 16 43 294
E 17 72 296
E 17 99 300
E 18 97 289
E 18 157 293
E 18 307 186
E 19 42 297
E 19 69 292
E 20 143 296
E 21 71 294
E 21 105 293
E 22 99 297
E 23 84 299
E 24 54 298
E 25 74 298
E 25 95 291
E 25 513 198
E 26 90 297
E 27 48 296
E 27 70 298
E 27 71 296
E 27 130 299
E 27 157 292
E 28 66 297
E 28 69 298
E 29 134 287
E 29 150 302
E 29 156 295
E 30 64 300
E 30 109 298
E 31 60 290
E 31 61 294
E 31 78 303
E 31 90 296
E 31 116 296
E 31 147 298
E 32 61 297
E 32 207 188
E 33 96 289
E 33 121 296
E 34 540 187
E 35 86 297
E 35 149 307
E 36 73 298
E 37 192 192
E 38 437 199
E 39 52 302
E 40 104 298
E 40 138 293
E 41 65 300
E 41 77 291
E 41 92 298
E 42 90 298
E 44 59 300
E 45 136 298
E 46 93 290
E 46 111 298
E 47 122 298
E 47 139 289
E 48 52 299
E 48 86 301
E 49 92 297
E 50 57 305
E 51 155 303
E 52 92 294
E 52 156 297
E 53 90 296
E 53 391 196
E 54 75 300
E 54 127 294
E 55 106 297
E 55 160 295
E 57 94 298
E 58 79 306
E 59 142 295
E 59 437 196
E 60 118 303
E 62 95 302
E 63 97 293
E 67 68 298
E 67 135 301
E 67 136 292
E 71 152 298
E 72 145 299
E 74 83 300
E 75 125 300
E 75 129 296
E 75 160 292
E 76 101 302
E 80 102 306
E 81 103 293
E 81 111 290
E 82 119 309
E 82 603 191
E 83 144 305
E 84 109 297
E 85 107 300
E 85 155 302
E 85 158 300
E 87 391 192
E 88 155 294
E 89 625 194
E 90 98 292
E 91 132 299
E 93 105 300
E 94 136 292
E 95 102 297
E 96 116 299
E 97 108 299
E 98 107 296
E 98 109 299
E 98 120 297
E 99 106 296
E 100 325 190
E 102 122 299
E 105 112 301
E 106 151 298
E 107 114 293
E 110 122 297
E 111 148 304
E 112 625 194
E 113 116 298
E 113 138 294
E 114 142 295
E 115 124 300
E 116 133 291
E 117 152 302
E 118 192 194
E 119 307 195
E 120 152 298
E 121 132 296
E 124 132 299
E 126 139 298
E 126 143 300
E 127 128 293
E 127 540 196
E 132 137 288
E 135 325 184
E 141 207 195
E 146 513 190
E 152 159 299
E 154 603 198
END
SECTION Terminals
T 1
T 2
T 3
T 4
T 5
T 6
T 7
T 8
T 9
T 10
T 11
T 12
T 13
T 14
T 15
T 16
T 17
T 18
T 19
T 20
T 21
T 22
T 23
T 24
T 25
T 26
T 27
T 28
T 29
T 30
T 31
T 32
T 33
T 34
T 35
T 36
T 37
T 38
T 39
T 40
T 41
T 42
T 43
T 44
T 45
T 46
T 47
T 48
T 49
T 50
T 51
T 52
T 53
T 54
T 55
T 56
T 57
T 58
T 59
T 60
T 61
T 62
T 63
T 64
T 65
T 66
T 67
T 68
T 69
T 70
T 71
T 72
T 73
T 74
T 75
T 76
T 77
T 78
T 79
T 80
T 81
T 82
T 83
T 84
T 85
T 86
T 87
T 88
T 89
T 90
T 91
T 92
T 93
T 94
T 95
T 96
T 97
T 98
T 99
T 100
T 101
T 102
T 103
T 104
T 105
T 106
T 107
T 108
T 109
T 110
T 111
T 112
T 113
T 114
T 115
T 116
T 117
T 118
T 119
T 120
T 121
T 122
T 123
T 124
T 125
T 126
T 127
T 128
T 129
T 130
T 131
T 132
T 133
T 134
T 135
T 136
T 137
T 138
T 139
T 140
T 141
T 142
T 143
T 144
T 145
T 146
T 147
T 148
T 149
T 150
T 151
T 152
T 153
T 154
T 155
T 156
T 157
T 158
T 159
T 160
END
SECTION Cost
48167
END
